(set-info :smt-lib-version 2.6)
(set-logic QF_NIA)
(set-info :source |
Generated by: Cristina Borralleras, Daniel Larraz, Albert Oliveras, Enric Rodriguez-Carbonell, Albert Rubio
Generated on: 2017-04-27
Generator: VeryMax
Application: Termination proving
Target solver: barcelogic
|)
(set-info :license "https://creativecommons.org/licenses/by/4.0/")
(set-info :category "industrial")
(set-info :status unsat)
(declare-fun Nl2main_i1 () Int)
(declare-fun lam0n1 () Int)
(declare-fun lam0n0 () Int)
(declare-fun Nl2CT1 () Int)
(declare-fun lam1n1 () Int)
(declare-fun lam1n0 () Int)
(declare-fun lam2n1 () Int)
(declare-fun lam2n0 () Int)
(declare-fun lam3n1 () Int)
(declare-fun lam3n0 () Int)
(declare-fun lam4n0 () Int)
(declare-fun lam4n1 () Int)
(declare-fun lam5n0 () Int)
(declare-fun lam5n1 () Int)
(declare-fun main_i () Int)
(declare-fun undef2 () Int)
(declare-fun lam9n1 () Int)
(declare-fun lam9n0 () Int)
(declare-fun RFN1_CT () Int)
(declare-fun RFN1_main_i () Int)
(declare-fun lam13n1 () Int)
(declare-fun lam13n0 () Int)
(declare-fun lam7n1 () Int)
(declare-fun lam7n0 () Int)
(declare-fun lam8n1 () Int)
(declare-fun lam8n0 () Int)
(declare-fun lam11n1 () Int)
(declare-fun lam11n0 () Int)
(declare-fun lam12n1 () Int)
(declare-fun lam12n0 () Int)
(declare-fun lam6n1 () Int)
(declare-fun lam6n0 () Int)
(declare-fun lam10n1 () Int)
(declare-fun lam10n0 () Int)
(assert ( and ( <= ( - 2 ) Nl2main_i1 ) ( <= Nl2main_i1 2 ) ))
(assert ( or ( and ( >= lam0n1 0 ) ( > ( + ( * 1 lam0n0 ) ( * Nl2CT1 lam0n1 ) ( - 1 ) ) 0 ) ( = ( + ( * 1 lam0n0 ) ( * Nl2main_i1 lam0n1 ) ) 0 ) ) ( and ( >= lam1n1 0 ) ( > ( + ( * 1 lam1n0 ) ( * Nl2CT1 lam1n1 ) ( - 1 ( + Nl2CT1 ( * Nl2main_i1 2 ) ) ) ) 0 ) ( = ( + ( * 1 lam1n0 ) ( * Nl2main_i1 lam1n1 ) ( - ( + 0 ( * Nl2main_i1 1 ) ) ) ) 0 ) ) ))
(assert ( or ( and ( >= lam2n1 0 ) ( > ( + ( * ( - 1 ) lam2n0 ) ( * Nl2CT1 lam2n1 ) ( - 1 ) ) 0 ) ( = ( + ( * 1 lam2n0 ) ( * Nl2main_i1 lam2n1 ) ) 0 ) ) ( and ( >= lam3n1 0 ) ( > ( + ( * ( - 1 ) lam3n0 ) ( * Nl2CT1 lam3n1 ) ( - 1 ( + Nl2CT1 ( * Nl2main_i1 ( - 2 ) ) ) ) ) 0 ) ( = ( + ( * 1 lam3n0 ) ( * Nl2main_i1 lam3n1 ) ( - ( + 0 ( * Nl2main_i1 1 ) ) ) ) 0 ) ) ))
(assert ( or ( and ( not ( <= ( * ( - 1 ) main_i ) 0 ) ) ( = ( + main_i ( * ( - 1 ) undef2 ) ) 0 ) ( <= ( + Nl2CT1 ( * ( + 0 Nl2main_i1 ) main_i ) ) 0 ) ( <= ( + ( - 1 ) main_i ) 0 ) ( <= ( + ( - 1 ) ( * ( - 1 ) main_i ) ) 0 ) ) ( and ( not ( <= main_i 0 ) ) ( = ( + main_i ( * ( - 1 ) undef2 ) ) 0 ) ( <= ( + Nl2CT1 ( * ( + 0 Nl2main_i1 ) main_i ) ) 0 ) ( <= ( + ( - 1 ) main_i ) 0 ) ( <= ( + ( - 1 ) ( * ( - 1 ) main_i ) ) 0 ) ) ))
(assert ( or ( and ( and ( and ( >= lam9n1 0 ) ( > ( + ( * 1 lam9n0 ) ( * Nl2CT1 lam9n1 ) ( - 1 ( - ( + RFN1_CT ( * RFN1_main_i 2 ) ) RFN1_CT ) ) ) 0 ) ( = ( + ( * 1 lam9n0 ) ( * Nl2main_i1 lam9n1 ) ( - ( - ( + 0 ( * RFN1_main_i 1 ) ) RFN1_main_i ) ) ) 0 ) ) ( and ( >= lam13n1 0 ) ( > ( + ( * ( - 1 ) lam13n0 ) ( * Nl2CT1 lam13n1 ) ( - 1 ( - ( + RFN1_CT ( * RFN1_main_i ( - 2 ) ) ) RFN1_CT ) ) ) 0 ) ( = ( + ( * 1 lam13n0 ) ( * Nl2main_i1 lam13n1 ) ( - ( - ( + 0 ( * RFN1_main_i 1 ) ) RFN1_main_i ) ) ) 0 ) ) ) ( or ( and ( and ( >= lam7n1 0 ) ( > ( + ( * 1 lam7n0 ) ( * Nl2CT1 lam7n1 ) ( - 1 ( - RFN1_CT ) ) ) 0 ) ( = ( + ( * 1 lam7n0 ) ( * Nl2main_i1 lam7n1 ) ( - ( - RFN1_main_i ) ) ) 0 ) ) ( and ( >= lam8n1 0 ) ( > ( + ( * 1 lam8n0 ) ( * Nl2CT1 lam8n1 ) ( - 1 ( + ( - ( + RFN1_CT ( * RFN1_main_i 2 ) ) RFN1_CT ) 1 ) ) ) 0 ) ( = ( + ( * 1 lam8n0 ) ( * Nl2main_i1 lam8n1 ) ( - ( - ( + 0 ( * RFN1_main_i 1 ) ) RFN1_main_i ) ) ) 0 ) ) ) ( and ( and ( >= lam11n1 0 ) ( > ( + ( * ( - 1 ) lam11n0 ) ( * Nl2CT1 lam11n1 ) ( - 1 ( - RFN1_CT ) ) ) 0 ) ( = ( + ( * 1 lam11n0 ) ( * Nl2main_i1 lam11n1 ) ( - ( - RFN1_main_i ) ) ) 0 ) ) ( and ( >= lam12n1 0 ) ( > ( + ( * ( - 1 ) lam12n0 ) ( * Nl2CT1 lam12n1 ) ( - 1 ( + ( - ( + RFN1_CT ( * RFN1_main_i ( - 2 ) ) ) RFN1_CT ) 1 ) ) ) 0 ) ( = ( + ( * 1 lam12n0 ) ( * Nl2main_i1 lam12n1 ) ( - ( - ( + 0 ( * RFN1_main_i 1 ) ) RFN1_main_i ) ) ) 0 ) ) ) ) ) ( or ( and ( >= lam6n1 0 ) ( > ( + ( * 1 lam6n0 ) ( * Nl2CT1 lam6n1 ) ( - 1 ) ) 0 ) ( = ( + ( * 1 lam6n0 ) ( * Nl2main_i1 lam6n1 ) ) 0 ) ) ( and ( >= lam10n1 0 ) ( > ( + ( * ( - 1 ) lam10n0 ) ( * Nl2CT1 lam10n1 ) ( - 1 ) ) 0 ) ( = ( + ( * 1 lam10n0 ) ( * Nl2main_i1 lam10n1 ) ) 0 ) ) ) ))
(check-sat)
(exit)
